% demand
num_movements = 35;
loading_factor = [1000, 1500, 900, 1950, 1600, 800, 1750, 1350, 850, 1500, 1900, 1600, 1700, 1300, 1550, 900, 1700, 1450, 1050, 1250, 1150, 1450, 1950, 1250, 850, 1800, 1750, 1700, 850, 1550, 1650, 1400, 1900, 900, 950];
pickup_time = [0, 0, 0, 1, 1, 1, 1, 2, 2, 3, 4, 4, 4, 5, 6, 6, 6, 6, 7, 7, 7, 8, 8, 8, 8, 8, 9, 9, 9, 9, 10, 11, 11, 11, 11];
delivery_time = [1, 1, 1, 3, 3, 2, 3, 3, 4, 7, 9, 5, 5, 7, 8, 8, 8, 8, 8, 10, 8, 9, 9, 10, 11, 11, 10, 10, 11, 10, 11, 12, 12, 12, 12];

% transporter definition
total_capacity = 11000;
num_decks = 4;
capacity = [3000, 3000, 1000, 4000];

% ways out of decks
num_ways_out = 2;
paths_out = array3d(decks, ways_out, decks, [
% ways out of deck d1
2, 4, 0, 0, 3, 4, 0, 0, 

% ways out of deck d2
4, 0, 0, 0, 0, 0, 0, 0,	

% ways out of deck d3
4, 0, 0, 0, 0, 0, 0, 0,	

% ways out of deck d4
0, 0, 0, 0,	0, 0, 0, 0,	

]);

